c generated by sgen
p cnf 97 204
-2 -3 -4 0
-1 -3 -4 0
-1 -2 -4 0
-1 -2 -3 0
-6 -7 -8 0
-5 -7 -8 0
-5 -6 -8 0
-5 -6 -7 0
-10 -11 -12 0
-9 -11 -12 0
-9 -10 -12 0
-9 -10 -11 0
-14 -15 -16 0
-13 -15 -16 0
-13 -14 -16 0
-13 -14 -15 0
-18 -19 -20 0
-17 -19 -20 0
-17 -18 -20 0
-17 -18 -19 0
-22 -23 -24 0
-21 -23 -24 0
-21 -22 -24 0
-21 -22 -23 0
-26 -27 -28 0
-25 -27 -28 0
-25 -26 -28 0
-25 -26 -27 0
-30 -31 -32 0
-29 -31 -32 0
-29 -30 -32 0
-29 -30 -31 0
-34 -35 -36 0
-33 -35 -36 0
-33 -34 -36 0
-33 -34 -35 0
-38 -39 -40 0
-37 -39 -40 0
-37 -38 -40 0
-37 -38 -39 0
-42 -43 -44 0
-41 -43 -44 0
-41 -42 -44 0
-41 -42 -43 0
-46 -47 -48 0
-45 -47 -48 0
-45 -46 -48 0
-45 -46 -47 0
-50 -51 -52 0
-49 -51 -52 0
-49 -50 -52 0
-49 -50 -51 0
-54 -55 -56 0
-53 -55 -56 0
-53 -54 -56 0
-53 -54 -55 0
-58 -59 -60 0
-57 -59 -60 0
-57 -58 -60 0
-57 -58 -59 0
-62 -63 -64 0
-61 -63 -64 0
-61 -62 -64 0
-61 -62 -63 0
-66 -67 -68 0
-65 -67 -68 0
-65 -66 -68 0
-65 -66 -67 0
-70 -71 -72 0
-69 -71 -72 0
-69 -70 -72 0
-69 -70 -71 0
-74 -75 -76 0
-73 -75 -76 0
-73 -74 -76 0
-73 -74 -75 0
-78 -79 -80 0
-77 -79 -80 0
-77 -78 -80 0
-77 -78 -79 0
-82 -83 -84 0
-81 -83 -84 0
-81 -82 -84 0
-81 -82 -83 0
-86 -87 -88 0
-85 -87 -88 0
-85 -86 -88 0
-85 -86 -87 0
-90 -91 -92 0
-89 -91 -92 0
-89 -90 -92 0
-89 -90 -91 0
-93 -94 -95 0
-93 -94 -96 0
-93 -94 -97 0
-93 -95 -96 0
-93 -95 -97 0
-93 -96 -97 0
-94 -95 -96 0
-94 -95 -97 0
-94 -96 -97 0
-95 -96 -97 0
77 90 55 0
23 90 55 0
23 77 55 0
23 77 90 0
12 41 97 0
80 41 97 0
80 12 97 0
80 12 41 0
68 24 28 0
2 24 28 0
2 68 28 0
2 68 24 0
73 20 85 0
22 20 85 0
22 73 85 0
22 73 20 0
6 34 79 0
14 34 79 0
14 6 79 0
14 6 34 0
18 51 45 0
93 51 45 0
93 18 45 0
93 18 51 0
3 63 35 0
95 63 35 0
95 3 35 0
95 3 63 0
50 42 4 0
58 42 4 0
58 50 4 0
58 50 42 0
39 47 10 0
26 47 10 0
26 39 10 0
26 39 47 0
5 69 64 0
27 69 64 0
27 5 64 0
27 5 69 0
82 86 52 0
9 86 52 0
9 82 52 0
9 82 86 0
83 25 13 0
89 25 13 0
89 83 13 0
89 83 25 0
30 92 62 0
67 92 62 0
67 30 62 0
67 30 92 0
72 53 87 0
15 53 87 0
15 72 87 0
15 72 53 0
74 40 91 0
96 40 91 0
96 74 91 0
96 74 40 0
17 78 1 0
37 78 1 0
37 17 1 0
37 17 78 0
8 65 88 0
94 65 88 0
94 8 88 0
94 8 65 0
61 44 46 0
75 44 46 0
75 61 46 0
75 61 44 0
36 71 32 0
11 71 32 0
11 36 32 0
11 36 71 0
56 81 48 0
31 81 48 0
31 56 48 0
31 56 81 0
21 29 16 0
43 29 16 0
43 21 16 0
43 21 29 0
19 33 59 0
84 33 59 0
84 19 59 0
84 19 33 0
57 7 54 0
76 7 54 0
76 57 54 0
76 57 7 0
38 60 66 0
38 60 70 0
38 60 49 0
38 66 70 0
38 66 49 0
38 70 49 0
60 66 70 0
60 66 49 0
60 70 49 0
66 70 49 0
